p cnf 196 1
196 0
w 1 0.491382
w 2 1 0.778386
w 2 -1 0.670308
w 3 2 0.0956763
w 3 -2 0.916201
w 4 3 1
w 4 -3 0
w 5 4 1
w 5 -4 0
w 6 5 0.595605
w 6 -5 0.73267
w 7 6 0
w 7 -6 1
w 8 7 1
w 8 -7 0
w 9 8 1
w 9 -8 0
w 10 9 1
w 10 -9 0
w 11 10 0
w 11 -10 1
w 12 11 0
w 12 -11 1
w 13 12 0.00986268
w 13 -12 0.910535
w 14 13 0.266913
w 14 -13 0.401917
w 15 1 0
w 15 -1 1
w 16 15 2 1
w 16 15 -2 0
w 16 -15 2 0
w 16 -15 -2 1
w 17 16 3 0.674666
w 17 16 -3 0.714308
w 17 -16 3 0.669254
w 17 -16 -3 0.270271
w 18 17 4 0
w 18 17 -4 1
w 18 -17 4 0
w 18 -17 -4 1
w 19 18 5 1
w 19 18 -5 0
w 19 -18 5 0
w 19 -18 -5 0
w 20 19 6 0
w 20 19 -6 0
w 20 -19 6 1
w 20 -19 -6 0
w 21 20 7 0
w 21 20 -7 0
w 21 -20 7 0
w 21 -20 -7 1
w 22 21 8 0.135666
w 22 21 -8 0.17957
w 22 -21 8 0.926207
w 22 -21 -8 0.124092
w 23 22 9 1
w 23 22 -9 0
w 23 -22 9 1
w 23 -22 -9 1
w 24 23 10 1
w 24 23 -10 1
w 24 -23 10 0
w 24 -23 -10 0
w 25 24 11 0
w 25 24 -11 1
w 25 -24 11 1
w 25 -24 -11 0
w 26 25 12 0.0802822
w 26 25 -12 0.0359299
w 26 -25 12 0.681281
w 26 -25 -12 0.0216987
w 27 26 13 0
w 27 26 -13 1
w 27 -26 13 1
w 27 -26 -13 0
w 28 27 14 1
w 28 27 -14 1
w 28 -27 14 0
w 28 -27 -14 1
w 29 15 0
w 29 -15 1
w 30 29 16 0
w 30 29 -16 0
w 30 -29 16 0
w 30 -29 -16 1
w 31 30 17 0
w 31 30 -17 1
w 31 -30 17 1
w 31 -30 -17 1
w 32 31 18 1
w 32 31 -18 0
w 32 -31 18 0
w 32 -31 -18 0
w 33 32 19 1
w 33 32 -19 0
w 33 -32 19 0
w 33 -32 -19 1
w 34 33 20 0.100728
w 34 33 -20 0.40005
w 34 -33 20 0.393518
w 34 -33 -20 0.531694
w 35 34 21 1
w 35 34 -21 0
w 35 -34 21 1
w 35 -34 -21 1
w 36 35 22 0
w 36 35 -22 0
w 36 -35 22 1
w 36 -35 -22 1
w 37 36 23 0
w 37 36 -23 1
w 37 -36 23 1
w 37 -36 -23 0
w 38 37 24 0.192437
w 38 37 -24 0.569265
w 38 -37 24 0.990987
w 38 -37 -24 0.798723
w 39 38 25 1
w 39 38 -25 1
w 39 -38 25 0
w 39 -38 -25 1
w 40 39 26 1
w 40 39 -26 0
w 40 -39 26 0
w 40 -39 -26 0
w 41 40 27 0
w 41 40 -27 1
w 41 -40 27 1
w 41 -40 -27 0
w 42 41 28 0
w 42 41 -28 0
w 42 -41 28 1
w 42 -41 -28 1
w 43 29 0
w 43 -29 1
w 44 43 30 0.798408
w 44 43 -30 0.919666
w 44 -43 30 0.329021
w 44 -43 -30 0.655482
w 45 44 31 1
w 45 44 -31 1
w 45 -44 31 0
w 45 -44 -31 0
w 46 45 32 0.351766
w 46 45 -32 0.607662
w 46 -45 32 0.292725
w 46 -45 -32 0.943873
w 47 46 33 0.834528
w 47 46 -33 0.93603
w 47 -46 33 0.32957
w 47 -46 -33 0.908026
w 48 47 34 1
w 48 47 -34 0
w 48 -47 34 0
w 48 -47 -34 0
w 49 48 35 0
w 49 48 -35 1
w 49 -48 35 0
w 49 -48 -35 0
w 50 49 36 0.52241
w 50 49 -36 0.926185
w 50 -49 36 0.758455
w 50 -49 -36 0.851432
w 51 50 37 0
w 51 50 -37 1
w 51 -50 37 0
w 51 -50 -37 0
w 52 51 38 0
w 52 51 -38 1
w 52 -51 38 0
w 52 -51 -38 1
w 53 52 39 1
w 53 52 -39 0
w 53 -52 39 1
w 53 -52 -39 1
w 54 53 40 1
w 54 53 -40 0
w 54 -53 40 1
w 54 -53 -40 1
w 55 54 41 0.639144
w 55 54 -41 0.707585
w 55 -54 41 0.579104
w 55 -54 -41 0.766921
w 56 55 42 1
w 56 55 -42 0
w 56 -55 42 0
w 56 -55 -42 1
w 57 43 0
w 57 -43 1
w 58 57 44 1
w 58 57 -44 0
w 58 -57 44 0
w 58 -57 -44 1
w 59 58 45 0
w 59 58 -45 0
w 59 -58 45 1
w 59 -58 -45 1
w 60 59 46 1
w 60 59 -46 1
w 60 -59 46 0
w 60 -59 -46 0
w 61 60 47 0.516133
w 61 60 -47 0.113964
w 61 -60 47 0.462557
w 61 -60 -47 0.365481
w 62 61 48 0.170142
w 62 61 -48 0.944585
w 62 -61 48 0.520029
w 62 -61 -48 0.716516
w 63 62 49 0
w 63 62 -49 0
w 63 -62 49 1
w 63 -62 -49 0
w 64 63 50 1
w 64 63 -50 1
w 64 -63 50 1
w 64 -63 -50 0
w 65 64 51 1
w 65 64 -51 1
w 65 -64 51 0
w 65 -64 -51 1
w 66 65 52 1
w 66 65 -52 0
w 66 -65 52 0
w 66 -65 -52 1
w 67 66 53 1
w 67 66 -53 1
w 67 -66 53 1
w 67 -66 -53 0
w 68 67 54 0
w 68 67 -54 0
w 68 -67 54 1
w 68 -67 -54 1
w 69 68 55 0.745995
w 69 68 -55 0.811628
w 69 -68 55 0.839629
w 69 -68 -55 0.233903
w 70 69 56 0
w 70 69 -56 1
w 70 -69 56 1
w 70 -69 -56 1
w 71 57 0.405283
w 71 -57 0.382244
w 72 71 58 1
w 72 71 -58 0
w 72 -71 58 0
w 72 -71 -58 0
w 73 72 59 1
w 73 72 -59 0
w 73 -72 59 0
w 73 -72 -59 0
w 74 73 60 0.822277
w 74 73 -60 0.320515
w 74 -73 60 0.824322
w 74 -73 -60 0.896044
w 75 74 61 0
w 75 74 -61 1
w 75 -74 61 0
w 75 -74 -61 0
w 76 75 62 1
w 76 75 -62 0
w 76 -75 62 0
w 76 -75 -62 0
w 77 76 63 0
w 77 76 -63 0
w 77 -76 63 1
w 77 -76 -63 1
w 78 77 64 0
w 78 77 -64 1
w 78 -77 64 1
w 78 -77 -64 1
w 79 78 65 0
w 79 78 -65 1
w 79 -78 65 1
w 79 -78 -65 0
w 80 79 66 0
w 80 79 -66 1
w 80 -79 66 1
w 80 -79 -66 0
w 81 80 67 0
w 81 80 -67 1
w 81 -80 67 1
w 81 -80 -67 0
w 82 81 68 0
w 82 81 -68 1
w 82 -81 68 0
w 82 -81 -68 0
w 83 82 69 0.187827
w 83 82 -69 0.14729
w 83 -82 69 0.20197
w 83 -82 -69 0.261287
w 84 83 70 0.888955
w 84 83 -70 0.150395
w 84 -83 70 0.706747
w 84 -83 -70 0.59386
w 85 71 1
w 85 -71 0
w 86 85 72 1
w 86 85 -72 0
w 86 -85 72 1
w 86 -85 -72 1
w 87 86 73 0.928934
w 87 86 -73 0.433465
w 87 -86 73 0.771614
w 87 -86 -73 0.526172
w 88 87 74 0
w 88 87 -74 1
w 88 -87 74 1
w 88 -87 -74 1
w 89 88 75 0
w 89 88 -75 1
w 89 -88 75 0
w 89 -88 -75 1
w 90 89 76 0
w 90 89 -76 1
w 90 -89 76 1
w 90 -89 -76 0
w 91 90 77 0
w 91 90 -77 0
w 91 -90 77 1
w 91 -90 -77 0
w 92 91 78 1
w 92 91 -78 0
w 92 -91 78 0
w 92 -91 -78 1
w 93 92 79 0.683853
w 93 92 -79 0.541624
w 93 -92 79 0.580433
w 93 -92 -79 0.210025
w 94 93 80 0.867426
w 94 93 -80 0.289014
w 94 -93 80 0.0313647
w 94 -93 -80 0.167752
w 95 94 81 1
w 95 94 -81 1
w 95 -94 81 0
w 95 -94 -81 0
w 96 95 82 0.0864858
w 96 95 -82 0.406812
w 96 -95 82 0.26462
w 96 -95 -82 0.337612
w 97 96 83 0.684104
w 97 96 -83 0.295486
w 97 -96 83 0.859464
w 97 -96 -83 0.5491
w 98 97 84 1
w 98 97 -84 0
w 98 -97 84 1
w 98 -97 -84 0
w 99 85 0.827262
w 99 -85 0.606461
w 100 99 86 1
w 100 99 -86 0
w 100 -99 86 0
w 100 -99 -86 0
w 101 100 87 1
w 101 100 -87 0
w 101 -100 87 0
w 101 -100 -87 0
w 102 101 88 0
w 102 101 -88 0
w 102 -101 88 0
w 102 -101 -88 1
w 103 102 89 0
w 103 102 -89 1
w 103 -102 89 0
w 103 -102 -89 0
w 104 103 90 1
w 104 103 -90 1
w 104 -103 90 1
w 104 -103 -90 0
w 105 104 91 1
w 105 104 -91 0
w 105 -104 91 1
w 105 -104 -91 0
w 106 105 92 1
w 106 105 -92 1
w 106 -105 92 1
w 106 -105 -92 0
w 107 106 93 0
w 107 106 -93 1
w 107 -106 93 0
w 107 -106 -93 0
w 108 107 94 0.788765
w 108 107 -94 0.502592
w 108 -107 94 0.349036
w 108 -107 -94 0.524388
w 109 108 95 0
w 109 108 -95 1
w 109 -108 95 1
w 109 -108 -95 1
w 110 109 96 0
w 110 109 -96 1
w 110 -109 96 1
w 110 -109 -96 1
w 111 110 97 0
w 111 110 -97 0
w 111 -110 97 1
w 111 -110 -97 1
w 112 111 98 0
w 112 111 -98 1
w 112 -111 98 1
w 112 -111 -98 0
w 113 99 1
w 113 -99 0
w 114 113 100 0.269049
w 114 113 -100 0.632162
w 114 -113 100 0.557449
w 114 -113 -100 0.771642
w 115 114 101 0.0818369
w 115 114 -101 0.277921
w 115 -114 101 0.0209871
w 115 -114 -101 0.679461
w 116 115 102 1
w 116 115 -102 1
w 116 -115 102 0
w 116 -115 -102 0
w 117 116 103 1
w 117 116 -103 1
w 117 -116 103 1
w 117 -116 -103 0
w 118 117 104 0
w 118 117 -104 1
w 118 -117 104 1
w 118 -117 -104 0
w 119 118 105 0
w 119 118 -105 1
w 119 -118 105 0
w 119 -118 -105 0
w 120 119 106 1
w 120 119 -106 0
w 120 -119 106 0
w 120 -119 -106 1
w 121 120 107 0.259984
w 121 120 -107 0.730781
w 121 -120 107 0.242986
w 121 -120 -107 0.280971
w 122 121 108 0
w 122 121 -108 1
w 122 -121 108 0
w 122 -121 -108 0
w 123 122 109 0
w 123 122 -109 1
w 123 -122 109 1
w 123 -122 -109 1
w 124 123 110 1
w 124 123 -110 1
w 124 -123 110 0
w 124 -123 -110 1
w 125 124 111 1
w 125 124 -111 0
w 125 -124 111 0
w 125 -124 -111 1
w 126 125 112 0
w 126 125 -112 1
w 126 -125 112 1
w 126 -125 -112 1
w 127 113 0
w 127 -113 1
w 128 127 114 0
w 128 127 -114 1
w 128 -127 114 1
w 128 -127 -114 1
w 129 128 115 0
w 129 128 -115 1
w 129 -128 115 1
w 129 -128 -115 1
w 130 129 116 0
w 130 129 -116 1
w 130 -129 116 1
w 130 -129 -116 1
w 131 130 117 1
w 131 130 -117 0
w 131 -130 117 0
w 131 -130 -117 0
w 132 131 118 0
w 132 131 -118 1
w 132 -131 118 0
w 132 -131 -118 0
w 133 132 119 1
w 133 132 -119 1
w 133 -132 119 0
w 133 -132 -119 0
w 134 133 120 0
w 134 133 -120 1
w 134 -133 120 1
w 134 -133 -120 1
w 135 134 121 0.275217
w 135 134 -121 0.798468
w 135 -134 121 0.711371
w 135 -134 -121 0.449267
w 136 135 122 1
w 136 135 -122 0
w 136 -135 122 0
w 136 -135 -122 0
w 137 136 123 0
w 137 136 -123 1
w 137 -136 123 1
w 137 -136 -123 0
w 138 137 124 1
w 138 137 -124 0
w 138 -137 124 0
w 138 -137 -124 0
w 139 138 125 0.504073
w 139 138 -125 0.587773
w 139 -138 125 0.749051
w 139 -138 -125 0.861653
w 140 139 126 1
w 140 139 -126 1
w 140 -139 126 0
w 140 -139 -126 1
w 141 127 0.935582
w 141 -127 0.396814
w 142 141 128 0
w 142 141 -128 0
w 142 -141 128 1
w 142 -141 -128 1
w 143 142 129 0
w 143 142 -129 1
w 143 -142 129 1
w 143 -142 -129 1
w 144 143 130 0.859226
w 144 143 -130 0.764691
w 144 -143 130 0.66636
w 144 -143 -130 0.759042
w 145 144 131 0
w 145 144 -131 1
w 145 -144 131 0
w 145 -144 -131 1
w 146 145 132 1
w 146 145 -132 1
w 146 -145 132 0
w 146 -145 -132 0
w 147 146 133 1
w 147 146 -133 1
w 147 -146 133 1
w 147 -146 -133 0
w 148 147 134 0
w 148 147 -134 1
w 148 -147 134 0
w 148 -147 -134 1
w 149 148 135 0
w 149 148 -135 1
w 149 -148 135 1
w 149 -148 -135 0
w 150 149 136 0
w 150 149 -136 1
w 150 -149 136 0
w 150 -149 -136 0
w 151 150 137 0
w 151 150 -137 1
w 151 -150 137 0
w 151 -150 -137 0
w 152 151 138 0.595522
w 152 151 -138 0.219874
w 152 -151 138 0.826674
w 152 -151 -138 0.0498092
w 153 152 139 0.995782
w 153 152 -139 0.18954
w 153 -152 139 0.185701
w 153 -152 -139 0.100473
w 154 153 140 1
w 154 153 -140 0
w 154 -153 140 1
w 154 -153 -140 1
w 155 141 1
w 155 -141 0
w 156 155 142 1
w 156 155 -142 0
w 156 -155 142 1
w 156 -155 -142 1
w 157 156 143 0.365503
w 157 156 -143 0.620626
w 157 -156 143 0.117297
w 157 -156 -143 0.712775
w 158 157 144 0.161959
w 158 157 -144 0.851629
w 158 -157 144 0.749874
w 158 -157 -144 0.757481
w 159 158 145 0
w 159 158 -145 1
w 159 -158 145 0
w 159 -158 -145 0
w 160 159 146 1
w 160 159 -146 0
w 160 -159 146 1
w 160 -159 -146 1
w 161 160 147 0
w 161 160 -147 1
w 161 -160 147 0
w 161 -160 -147 0
w 162 161 148 0.631932
w 162 161 -148 0.305006
w 162 -161 148 0.0850528
w 162 -161 -148 0.629051
w 163 162 149 1
w 163 162 -149 1
w 163 -162 149 0
w 163 -162 -149 1
w 164 163 150 0
w 164 163 -150 1
w 164 -163 150 0
w 164 -163 -150 0
w 165 164 151 0
w 165 164 -151 0
w 165 -164 151 1
w 165 -164 -151 0
w 166 165 152 0.0360074
w 166 165 -152 0.776426
w 166 -165 152 0.630622
w 166 -165 -152 0.898622
w 167 166 153 0.00248211
w 167 166 -153 0.426208
w 167 -166 153 0.973859
w 167 -166 -153 0.501759
w 168 167 154 1
w 168 167 -154 1
w 168 -167 154 0
w 168 -167 -154 1
w 169 155 0.511545
w 169 -155 0.372479
w 170 169 156 0
w 170 169 -156 1
w 170 -169 156 0
w 170 -169 -156 0
w 171 170 157 1
w 171 170 -157 0
w 171 -170 157 0
w 171 -170 -157 1
w 172 171 158 0
w 172 171 -158 1
w 172 -171 158 1
w 172 -171 -158 0
w 173 172 159 1
w 173 172 -159 0
w 173 -172 159 1
w 173 -172 -159 0
w 174 173 160 0
w 174 173 -160 0
w 174 -173 160 0
w 174 -173 -160 1
w 175 174 161 0
w 175 174 -161 1
w 175 -174 161 0
w 175 -174 -161 1
w 176 175 162 0
w 176 175 -162 1
w 176 -175 162 0
w 176 -175 -162 1
w 177 176 163 0
w 177 176 -163 0
w 177 -176 163 0
w 177 -176 -163 1
w 178 177 164 0.907291
w 178 177 -164 0.965489
w 178 -177 164 0.515347
w 178 -177 -164 0.49067
w 179 178 165 0
w 179 178 -165 1
w 179 -178 165 0
w 179 -178 -165 0
w 180 179 166 0
w 180 179 -166 1
w 180 -179 166 0
w 180 -179 -166 1
w 181 180 167 0
w 181 180 -167 0
w 181 -180 167 0
w 181 -180 -167 1
w 182 181 168 0
w 182 181 -168 0
w 182 -181 168 0
w 182 -181 -168 1
w 183 169 0
w 183 -169 1
w 184 183 170 1
w 184 183 -170 0
w 184 -183 170 1
w 184 -183 -170 1
w 185 184 171 1
w 185 184 -171 0
w 185 -184 171 1
w 185 -184 -171 0
w 186 185 172 1
w 186 185 -172 0
w 186 -185 172 0
w 186 -185 -172 0
w 187 186 173 0.477173
w 187 186 -173 0.673354
w 187 -186 173 0.561883
w 187 -186 -173 0.24174
w 188 187 174 1
w 188 187 -174 1
w 188 -187 174 1
w 188 -187 -174 0
w 189 188 175 1
w 189 188 -175 0
w 189 -188 175 1
w 189 -188 -175 0
w 190 189 176 1
w 190 189 -176 1
w 190 -189 176 1
w 190 -189 -176 0
w 191 190 177 0.0860354
w 191 190 -177 0.42498
w 191 -190 177 0.576338
w 191 -190 -177 0.818643
w 192 191 178 0.505211
w 192 191 -178 0.573298
w 192 -191 178 0.850968
w 192 -191 -178 0.690064
w 193 192 179 1
w 193 192 -179 0
w 193 -192 179 0
w 193 -192 -179 1
w 194 193 180 1
w 194 193 -180 0
w 194 -193 180 1
w 194 -193 -180 0
w 195 194 181 0
w 195 194 -181 1
w 195 -194 181 0
w 195 -194 -181 0
w 196 195 182 0
w 196 195 -182 1
w 196 -195 182 1
w 196 -195 -182 1